p tw 576 2464
1 33
2 34
3 35
4 36
5 37
6 38
7 39
8 40
9 41
10 42
11 43
12 44
13 45
14 46
15 47
16 48
17 49
18 50
19 51
20 52
21 53
22 54
23 55
24 56
25 57
26 58
27 59
28 60
29 61
30 62
31 63
32 64
33 70
33 71
33 72
33 73
33 74
34 75
34 89
34 90
34 91
34 92
35 93
35 98
35 99
35 100
35 101
36 77
36 100
36 105
36 124
36 127
37 67
37 113
37 138
37 140
37 143
38 87
38 112
38 129
38 131
38 133
39 84
39 85
39 86
39 87
39 88
40 106
40 116
40 144
40 147
40 148
41 65
41 82
41 121
41 122
41 123
42 80
42 102
42 105
42 106
42 107
43 85
43 89
43 128
43 129
43 130
44 75
44 76
44 77
44 78
44 79
45 122
45 137
45 140
45 141
45 142
46 70
46 80
46 81
46 82
46 83
47 95
47 134
47 137
47 138
47 139
48 68
48 117
48 154
48 158
48 160
49 86
49 94
49 128
49 131
49 132
50 99
50 103
50 115
50 119
50 120
51 111
51 115
51 116
51 117
51 118
52 66
52 73
52 134
52 135
52 136
53 90
53 141
53 144
53 145
53 146
54 78
54 151
54 156
54 158
54 159
55 72
55 111
55 112
55 113
55 114
56 93
56 94
56 95
56 96
56 97
57 91
57 119
57 153
57 156
57 157
58 65
58 66
58 67
58 68
58 69
59 108
59 125
59 149
59 151
59 152
60 96
60 109
60 153
60 154
60 155
61 76
61 121
61 124
61 125
61 126
62 84
62 98
62 102
62 103
62 104
63 135
63 145
63 147
63 149
63 150
64 71
64 81
64 108
64 109
64 110
65 66
65 67
65 68
65 69
65 82
65 121
65 122
65 123
66 67
66 68
66 69
66 73
66 134
66 135
66 136
67 68
67 69
67 113
67 138
67 140
67 143
68 69
68 117
68 154
68 158
68 160
69 161
69 162
69 163
69 164
69 165
70 71
70 72
70 73
70 74
70 80
70 81
70 82
70 83
71 72
71 73
71 74
71 81
71 108
71 109
71 110
72 73
72 74
72 111
72 112
72 113
72 114
73 74
73 134
73 135
73 136
74 166
74 167
74 168
74 169
74 170
75 76
75 77
75 78
75 79
75 89
75 90
75 91
75 92
76 77
76 78
76 79
76 121
76 124
76 125
76 126
77 78
77 79
77 100
77 105
77 124
77 127
78 79
78 151
78 156
78 158
78 159
79 171
79 172
79 173
79 174
79 175
80 81
80 82
80 83
80 102
80 105
80 106
80 107
81 82
81 83
81 108
81 109
81 110
82 83
82 121
82 122
82 123
83 166
83 176
83 177
83 178
83 179
84 85
84 86
84 87
84 88
84 98
84 102
84 103
84 104
85 86
85 87
85 88
85 89
85 128
85 129
85 130
86 87
86 88
86 94
86 128
86 131
86 132
87 88
87 112
87 129
87 131
87 133
88 180
88 181
88 182
88 183
88 184
89 90
89 91
89 92
89 128
89 129
89 130
90 91
90 92
90 141
90 144
90 145
90 146
91 92
91 119
91 153
91 156
91 157
92 171
92 185
92 186
92 187
92 188
93 94
93 95
93 96
93 97
93 98
93 99
93 100
93 101
94 95
94 96
94 97
94 128
94 131
94 132
95 96
95 97
95 134
95 137
95 138
95 139
96 97
96 109
96 153
96 154
96 155
97 189
97 190
97 191
97 192
97 193
98 99
98 100
98 101
98 102
98 103
98 104
99 100
99 101
99 103
99 115
99 119
99 120
100 101
100 105
100 124
100 127
101 189
101 194
101 195
101 196
101 197
102 103
102 104
102 105
102 106
102 107
103 104
103 115
103 119
103 120
104 180
104 194
104 198
104 199
104 200
105 106
105 107
105 124
105 127
106 107
106 116
106 144
106 147
106 148
107 176
107 198
107 201
107 202
107 203
108 109
108 110
108 125
108 149
108 151
108 152
109 110
109 153
109 154
109 155
110 167
110 177
110 204
110 205
110 206
111 112
111 113
111 114
111 115
111 116
111 117
111 118
112 113
112 114
112 129
112 131
112 133
113 114
113 138
113 140
113 143
114 168
114 207
114 208
114 209
114 210
115 116
115 117
115 118
115 119
115 120
116 117
116 118
116 144
116 147
116 148
117 118
117 154
117 158
117 160
118 207
118 211
118 212
118 213
118 214
119 120
119 153
119 156
119 157
120 195
120 199
120 211
120 215
120 216
121 122
121 123
121 124
121 125
121 126
122 123
122 137
122 140
122 141
122 142
123 161
123 178
123 217
123 218
123 219
124 125
124 126
124 127
125 126
125 149
125 151
125 152
126 172
126 217
126 220
126 221
126 222
127 173
127 196
127 201
127 220
127 223
128 129
128 130
128 131
128 132
129 130
129 131
129 133
130 181
130 185
130 224
130 225
130 226
131 132
131 133
132 182
132 190
132 224
132 227
132 228
133 183
133 208
133 225
133 227
133 229
134 135
134 136
134 137
134 138
134 139
135 136
135 145
135 147
135 149
135 150
136 162
136 169
136 230
136 231
136 232
137 138
137 139
137 140
137 141
137 142
138 139
138 140
138 143
139 191
139 230
139 233
139 234
139 235
140 141
140 142
140 143
141 142
141 144
141 145
141 146
142 218
142 233
142 236
142 237
142 238
143 163
143 209
143 234
143 236
143 239
144 145
144 146
144 147
144 148
145 146
145 147
145 149
145 150
146 186
146 237
146 240
146 241
146 242
147 148
147 149
147 150
148 202
148 212
148 240
148 243
148 244
149 150
149 151
149 152
150 231
150 241
150 243
150 245
150 246
151 152
151 156
151 158
151 159
152 204
152 221
152 245
152 247
152 248
153 154
153 155
153 156
153 157
154 155
154 158
154 160
155 192
155 205
155 249
155 250
155 251
156 157
156 158
156 159
157 187
157 215
157 249
157 252
157 253
158 159
158 160
159 174
159 247
159 252
159 254
159 255
160 164
160 213
160 250
160 254
160 256
161 162
161 163
161 164
161 165
161 178
161 217
161 218
161 219
162 163
162 164
162 165
162 169
162 230
162 231
162 232
163 164
163 165
163 209
163 234
163 236
163 239
164 165
164 213
164 250
164 254
164 256
165 257
165 258
165 259
165 260
165 261
166 167
166 168
166 169
166 170
166 176
166 177
166 178
166 179
167 168
167 169
167 170
167 177
167 204
167 205
167 206
168 169
168 170
168 207
168 208
168 209
168 210
169 170
169 230
169 231
169 232
170 262
170 263
170 264
170 265
170 266
171 172
171 173
171 174
171 175
171 185
171 186
171 187
171 188
172 173
172 174
172 175
172 217
172 220
172 221
172 222
173 174
173 175
173 196
173 201
173 220
173 223
174 175
174 247
174 252
174 254
174 255
175 267
175 268
175 269
175 270
175 271
176 177
176 178
176 179
176 198
176 201
176 202
176 203
177 178
177 179
177 204
177 205
177 206
178 179
178 217
178 218
178 219
179 262
179 272
179 273
179 274
179 275
180 181
180 182
180 183
180 184
180 194
180 198
180 199
180 200
181 182
181 183
181 184
181 185
181 224
181 225
181 226
182 183
182 184
182 190
182 224
182 227
182 228
183 184
183 208
183 225
183 227
183 229
184 276
184 277
184 278
184 279
184 280
185 186
185 187
185 188
185 224
185 225
185 226
186 187
186 188
186 237
186 240
186 241
186 242
187 188
187 215
187 249
187 252
187 253
188 267
188 281
188 282
188 283
188 284
189 190
189 191
189 192
189 193
189 194
189 195
189 196
189 197
190 191
190 192
190 193
190 224
190 227
190 228
191 192
191 193
191 230
191 233
191 234
191 235
192 193
192 205
192 249
192 250
192 251
193 285
193 286
193 287
193 288
193 289
194 195
194 196
194 197
194 198
194 199
194 200
195 196
195 197
195 199
195 211
195 215
195 216
196 197
196 201
196 220
196 223
197 285
197 290
197 291
197 292
197 293
198 199
198 200
198 201
198 202
198 203
199 200
199 211
199 215
199 216
200 276
200 290
200 294
200 295
200 296
201 202
201 203
201 220
201 223
202 203
202 212
202 240
202 243
202 244
203 272
203 294
203 297
203 298
203 299
204 205
204 206
204 221
204 245
204 247
204 248
205 206
205 249
205 250
205 251
206 263
206 273
206 300
206 301
206 302
207 208
207 209
207 210
207 211
207 212
207 213
207 214
208 209
208 210
208 225
208 227
208 229
209 210
209 234
209 236
209 239
210 264
210 303
210 304
210 305
210 306
211 212
211 213
211 214
211 215
211 216
212 213
212 214
212 240
212 243
212 244
213 214
213 250
213 254
213 256
214 303
214 307
214 308
214 309
214 310
215 216
215 249
215 252
215 253
216 291
216 295
216 307
216 311
216 312
217 218
217 219
217 220
217 221
217 222
218 219
218 233
218 236
218 237
218 238
219 257
219 274
219 313
219 314
219 315
220 221
220 222
220 223
221 222
221 245
221 247
221 248
222 268
222 313
222 316
222 317
222 318
223 269
223 292
223 297
223 316
223 319
224 225
224 226
224 227
224 228
225 226
225 227
225 229
226 277
226 281
226 320
226 321
226 322
227 228
227 229
228 278
228 286
228 320
228 323
228 324
229 279
229 304
229 321
229 323
229 325
230 231
230 232
230 233
230 234
230 235
231 232
231 241
231 243
231 245
231 246
232 258
232 265
232 326
232 327
232 328
233 234
233 235
233 236
233 237
233 238
234 235
234 236
234 239
235 287
235 326
235 329
235 330
235 331
236 237
236 238
236 239
237 238
237 240
237 241
237 242
238 314
238 329
238 332
238 333
238 334
239 259
239 305
239 330
239 332
239 335
240 241
240 242
240 243
240 244
241 242
241 243
241 245
241 246
242 282
242 333
242 336
242 337
242 338
243 244
243 245
243 246
244 298
244 308
244 336
244 339
244 340
245 246
245 247
245 248
246 327
246 337
246 339
246 341
246 342
247 248
247 252
247 254
247 255
248 300
248 317
248 341
248 343
248 344
249 250
249 251
249 252
249 253
250 251
250 254
250 256
251 288
251 301
251 345
251 346
251 347
252 253
252 254
252 255
253 283
253 311
253 345
253 348
253 349
254 255
254 256
255 270
255 343
255 348
255 350
255 351
256 260
256 309
256 346
256 350
256 352
257 258
257 259
257 260
257 261
257 274
257 313
257 314
257 315
258 259
258 260
258 261
258 265
258 326
258 327
258 328
259 260
259 261
259 305
259 330
259 332
259 335
260 261
260 309
260 346
260 350
260 352
261 353
261 354
261 355
261 356
261 357
262 263
262 264
262 265
262 266
262 272
262 273
262 274
262 275
263 264
263 265
263 266
263 273
263 300
263 301
263 302
264 265
264 266
264 303
264 304
264 305
264 306
265 266
265 326
265 327
265 328
266 358
266 359
266 360
266 361
266 362
267 268
267 269
267 270
267 271
267 281
267 282
267 283
267 284
268 269
268 270
268 271
268 313
268 316
268 317
268 318
269 270
269 271
269 292
269 297
269 316
269 319
270 271
270 343
270 348
270 350
270 351
271 363
271 364
271 365
271 366
271 367
272 273
272 274
272 275
272 294
272 297
272 298
272 299
273 274
273 275
273 300
273 301
273 302
274 275
274 313
274 314
274 315
275 358
275 368
275 369
275 370
275 371
276 277
276 278
276 279
276 280
276 290
276 294
276 295
276 296
277 278
277 279
277 280
277 281
277 320
277 321
277 322
278 279
278 280
278 286
278 320
278 323
278 324
279 280
279 304
279 321
279 323
279 325
280 372
280 373
280 374
280 375
280 376
281 282
281 283
281 284
281 320
281 321
281 322
282 283
282 284
282 333
282 336
282 337
282 338
283 284
283 311
283 345
283 348
283 349
284 363
284 377
284 378
284 379
284 380
285 286
285 287
285 288
285 289
285 290
285 291
285 292
285 293
286 287
286 288
286 289
286 320
286 323
286 324
287 288
287 289
287 326
287 329
287 330
287 331
288 289
288 301
288 345
288 346
288 347
289 381
289 382
289 383
289 384
289 385
290 291
290 292
290 293
290 294
290 295
290 296
291 292
291 293
291 295
291 307
291 311
291 312
292 293
292 297
292 316
292 319
293 381
293 386
293 387
293 388
293 389
294 295
294 296
294 297
294 298
294 299
295 296
295 307
295 311
295 312
296 372
296 386
296 390
296 391
296 392
297 298
297 299
297 316
297 319
298 299
298 308
298 336
298 339
298 340
299 368
299 390
299 393
299 394
299 395
300 301
300 302
300 317
300 341
300 343
300 344
301 302
301 345
301 346
301 347
302 359
302 369
302 396
302 397
302 398
303 304
303 305
303 306
303 307
303 308
303 309
303 310
304 305
304 306
304 321
304 323
304 325
305 306
305 330
305 332
305 335
306 360
306 399
306 400
306 401
306 402
307 308
307 309
307 310
307 311
307 312
308 309
308 310
308 336
308 339
308 340
309 310
309 346
309 350
309 352
310 399
310 403
310 404
310 405
310 406
311 312
311 345
311 348
311 349
312 387
312 391
312 403
312 407
312 408
313 314
313 315
313 316
313 317
313 318
314 315
314 329
314 332
314 333
314 334
315 353
315 370
315 409
315 410
315 411
316 317
316 318
316 319
317 318
317 341
317 343
317 344
318 364
318 409
318 412
318 413
318 414
319 365
319 388
319 393
319 412
319 415
320 321
320 322
320 323
320 324
321 322
321 323
321 325
322 373
322 377
322 416
322 417
322 418
323 324
323 325
324 374
324 382
324 416
324 419
324 420
325 375
325 400
325 417
325 419
325 421
326 327
326 328
326 329
326 330
326 331
327 328
327 337
327 339
327 341
327 342
328 354
328 361
328 422
328 423
328 424
329 330
329 331
329 332
329 333
329 334
330 331
330 332
330 335
331 383
331 422
331 425
331 426
331 427
332 333
332 334
332 335
333 334
333 336
333 337
333 338
334 410
334 425
334 428
334 429
334 430
335 355
335 401
335 426
335 428
335 431
336 337
336 338
336 339
336 340
337 338
337 339
337 341
337 342
338 378
338 429
338 432
338 433
338 434
339 340
339 341
339 342
340 394
340 404
340 432
340 435
340 436
341 342
341 343
341 344
342 423
342 433
342 435
342 437
342 438
343 344
343 348
343 350
343 351
344 396
344 413
344 437
344 439
344 440
345 346
345 347
345 348
345 349
346 347
346 350
346 352
347 384
347 397
347 441
347 442
347 443
348 349
348 350
348 351
349 379
349 407
349 441
349 444
349 445
350 351
350 352
351 366
351 439
351 444
351 446
351 447
352 356
352 405
352 442
352 446
352 448
353 354
353 355
353 356
353 357
353 370
353 409
353 410
353 411
354 355
354 356
354 357
354 361
354 422
354 423
354 424
355 356
355 357
355 401
355 426
355 428
355 431
356 357
356 405
356 442
356 446
356 448
357 449
357 450
357 451
357 452
357 453
358 359
358 360
358 361
358 362
358 368
358 369
358 370
358 371
359 360
359 361
359 362
359 369
359 396
359 397
359 398
360 361
360 362
360 399
360 400
360 401
360 402
361 362
361 422
361 423
361 424
362 454
362 455
362 456
362 457
362 458
363 364
363 365
363 366
363 367
363 377
363 378
363 379
363 380
364 365
364 366
364 367
364 409
364 412
364 413
364 414
365 366
365 367
365 388
365 393
365 412
365 415
366 367
366 439
366 444
366 446
366 447
367 459
367 460
367 461
367 462
367 463
368 369
368 370
368 371
368 390
368 393
368 394
368 395
369 370
369 371
369 396
369 397
369 398
370 371
370 409
370 410
370 411
371 454
371 464
371 465
371 466
371 467
372 373
372 374
372 375
372 376
372 386
372 390
372 391
372 392
373 374
373 375
373 376
373 377
373 416
373 417
373 418
374 375
374 376
374 382
374 416
374 419
374 420
375 376
375 400
375 417
375 419
375 421
376 468
376 469
376 470
376 471
376 472
377 378
377 379
377 380
377 416
377 417
377 418
378 379
378 380
378 429
378 432
378 433
378 434
379 380
379 407
379 441
379 444
379 445
380 459
380 473
380 474
380 475
380 476
381 382
381 383
381 384
381 385
381 386
381 387
381 388
381 389
382 383
382 384
382 385
382 416
382 419
382 420
383 384
383 385
383 422
383 425
383 426
383 427
384 385
384 397
384 441
384 442
384 443
385 477
385 478
385 479
385 480
385 481
386 387
386 388
386 389
386 390
386 391
386 392
387 388
387 389
387 391
387 403
387 407
387 408
388 389
388 393
388 412
388 415
389 477
389 482
389 483
389 484
389 485
390 391
390 392
390 393
390 394
390 395
391 392
391 403
391 407
391 408
392 468
392 482
392 486
392 487
392 488
393 394
393 395
393 412
393 415
394 395
394 404
394 432
394 435
394 436
395 464
395 486
395 489
395 490
395 491
396 397
396 398
396 413
396 437
396 439
396 440
397 398
397 441
397 442
397 443
398 455
398 465
398 492
398 493
398 494
399 400
399 401
399 402
399 403
399 404
399 405
399 406
400 401
400 402
400 417
400 419
400 421
401 402
401 426
401 428
401 431
402 456
402 495
402 496
402 497
402 498
403 404
403 405
403 406
403 407
403 408
404 405
404 406
404 432
404 435
404 436
405 406
405 442
405 446
405 448
406 495
406 499
406 500
406 501
406 502
407 408
407 441
407 444
407 445
408 483
408 487
408 499
408 503
408 504
409 410
409 411
409 412
409 413
409 414
410 411
410 425
410 428
410 429
410 430
411 449
411 466
411 505
411 506
411 507
412 413
412 414
412 415
413 414
413 437
413 439
413 440
414 460
414 505
414 508
414 509
414 510
415 461
415 484
415 489
415 508
415 511
416 417
416 418
416 419
416 420
417 418
417 419
417 421
418 469
418 473
418 512
418 513
418 514
419 420
419 421
420 470
420 478
420 512
420 515
420 516
421 471
421 496
421 513
421 515
421 517
422 423
422 424
422 425
422 426
422 427
423 424
423 433
423 435
423 437
423 438
424 450
424 457
424 518
424 519
424 520
425 426
425 427
425 428
425 429
425 430
426 427
426 428
426 431
427 479
427 518
427 521
427 522
427 523
428 429
428 430
428 431
429 430
429 432
429 433
429 434
430 506
430 521
430 524
430 525
430 526
431 451
431 497
431 522
431 524
431 527
432 433
432 434
432 435
432 436
433 434
433 435
433 437
433 438
434 474
434 525
434 528
434 529
434 530
435 436
435 437
435 438
436 490
436 500
436 528
436 531
436 532
437 438
437 439
437 440
438 519
438 529
438 531
438 533
438 534
439 440
439 444
439 446
439 447
440 492
440 509
440 533
440 535
440 536
441 442
441 443
441 444
441 445
442 443
442 446
442 448
443 480
443 493
443 537
443 538
443 539
444 445
444 446
444 447
445 475
445 503
445 537
445 540
445 541
446 447
446 448
447 462
447 535
447 540
447 542
447 543
448 452
448 501
448 538
448 542
448 544
449 450
449 451
449 452
449 453
449 466
449 505
449 506
449 507
450 451
450 452
450 453
450 457
450 518
450 519
450 520
451 452
451 453
451 497
451 522
451 524
451 527
452 453
452 501
452 538
452 542
452 544
453 551
454 455
454 456
454 457
454 458
454 464
454 465
454 466
454 467
455 456
455 457
455 458
455 465
455 492
455 493
455 494
456 457
456 458
456 495
456 496
456 497
456 498
457 458
457 518
457 519
457 520
458 576
459 460
459 461
459 462
459 463
459 473
459 474
459 475
459 476
460 461
460 462
460 463
460 505
460 508
460 509
460 510
461 462
461 463
461 484
461 489
461 508
461 511
462 463
462 535
462 540
462 542
462 543
463 565
464 465
464 466
464 467
464 486
464 489
464 490
464 491
465 466
465 467
465 492
465 493
465 494
466 467
466 505
466 506
466 507
467 563
468 469
468 470
468 471
468 472
468 482
468 486
468 487
468 488
469 470
469 471
469 472
469 473
469 512
469 513
469 514
470 471
470 472
470 478
470 512
470 515
470 516
471 472
471 496
471 513
471 515
471 517
472 570
473 474
473 475
473 476
473 512
473 513
473 514
474 475
474 476
474 525
474 528
474 529
474 530
475 476
475 503
475 537
475 540
475 541
476 575
477 478
477 479
477 480
477 481
477 482
477 483
477 484
477 485
478 479
478 480
478 481
478 512
478 515
478 516
479 480
479 481
479 518
479 521
479 522
479 523
480 481
480 493
480 537
480 538
480 539
481 553
482 483
482 484
482 485
482 486
482 487
482 488
483 484
483 485
483 487
483 499
483 503
483 504
484 485
484 489
484 508
484 511
485 574
486 487
486 488
486 489
486 490
486 491
487 488
487 499
487 503
487 504
488 547
489 490
489 491
489 508
489 511
490 491
490 500
490 528
490 531
490 532
491 567
492 493
492 494
492 509
492 533
492 535
492 536
493 494
493 537
493 538
493 539
494 545
495 496
495 497
495 498
495 499
495 500
495 501
495 502
496 497
496 498
496 513
496 515
496 517
497 498
497 522
497 524
497 527
498 554
499 500
499 501
499 502
499 503
499 504
500 501
500 502
500 528
500 531
500 532
501 502
501 538
501 542
501 544
502 558
503 504
503 537
503 540
503 541
504 559
505 506
505 507
505 508
505 509
505 510
506 507
506 521
506 524
506 525
506 526
507 568
508 509
508 510
508 511
509 510
509 533
509 535
509 536
510 548
511 573
512 513
512 514
512 515
512 516
513 514
513 515
513 517
514 566
515 516
515 517
516 560
517 571
518 519
518 520
518 521
518 522
518 523
519 520
519 529
519 531
519 533
519 534
520 557
521 522
521 523
521 524
521 525
521 526
522 523
522 524
522 527
523 562
524 525
524 526
524 527
525 526
525 528
525 529
525 530
526 564
527 572
528 529
528 530
528 531
528 532
529 530
529 531
529 533
529 534
530 556
531 532
531 533
531 534
532 569
533 534
533 535
533 536
534 546
535 536
535 540
535 542
535 543
536 550
537 538
537 539
537 540
537 541
538 539
538 542
538 544
539 549
540 541
540 542
540 543
541 552
542 543
542 544
543 555
544 561
